(set-logic QF_SLIA)
(set-option :produce-models true)
(declare-const X String)
; ^(([0][0-9]|[1][0-2])|[0-9]):([0-5][0-9])( *)((AM|PM)|(A|P))$
(assert (not (str.in_re X (re.++ (re.union (re.range "0" "9") (re.++ (str.to_re "0") (re.range "0" "9")) (re.++ (str.to_re "1") (re.range "0" "2"))) (str.to_re ":") (re.* (str.to_re " ")) (re.union (str.to_re "AM") (str.to_re "PM") (str.to_re "A") (str.to_re "P")) (str.to_re "\u{0a}") (re.range "0" "5") (re.range "0" "9")))))
; ^([0-9a-zA-Z]([-.\w]*[0-9a-zA-Z])*@([0-9a-zA-Z][-\w]*[0-9a-zA-Z]\.)+[a-zA-Z]{2,9})$
(assert (not (str.in_re X (re.++ (str.to_re "\u{0a}") (re.union (re.range "0" "9") (re.range "a" "z") (re.range "A" "Z")) (re.* (re.++ (re.* (re.union (str.to_re "-") (str.to_re ".") (re.range "0" "9") (re.range "A" "Z") (re.range "a" "z") (str.to_re "_"))) (re.union (re.range "0" "9") (re.range "a" "z") (re.range "A" "Z")))) (str.to_re "@") (re.+ (re.++ (re.union (re.range "0" "9") (re.range "a" "z") (re.range "A" "Z")) (re.* (re.union (str.to_re "-") (re.range "0" "9") (re.range "A" "Z") (re.range "a" "z") (str.to_re "_"))) (re.union (re.range "0" "9") (re.range "a" "z") (re.range "A" "Z")) (str.to_re "."))) ((_ re.loop 2 9) (re.union (re.range "a" "z") (re.range "A" "Z")))))))
; ^([1-9]{1}[0-9]{0,7})+((,[1-9]{1}[0-9]{0,7}){0,1})+$
(assert (str.in_re X (re.++ (re.+ (re.++ ((_ re.loop 1 1) (re.range "1" "9")) ((_ re.loop 0 7) (re.range "0" "9")))) (re.+ (re.opt (re.++ (str.to_re ",") ((_ re.loop 1 1) (re.range "1" "9")) ((_ re.loop 0 7) (re.range "0" "9"))))) (str.to_re "\u{0a}"))))
; http://www.9lessons.info/2008/08/most-popular-articles.html
(assert (not (str.in_re X (re.++ (str.to_re "http://www") re.allchar (str.to_re "9lessons") re.allchar (str.to_re "info/2008/08/most-popular-articles") re.allchar (str.to_re "html\u{0a}")))))
(assert (> (str.len X) 10))
(check-sat)
